\ENCODING=ISO-8859-1
\Problem name: 

Minimize
 obj: r
Subject To
 h11:          x111 + x121 + x131 + x141 + x151  = 2
 h12:          x112 + x122 + x132 + x142 + x152  = 3
 h13:          x113 + x123 + x133 + x143 + x153  = 4
 h14:          x114 + x124 + x134 + x144 + x154  = 5
 h15:          x115 + x125 + x135 + x145 + x155  = 6
 h21:          x211 + x221 + x231 + x241 + x251  = 3
 h22:          x212 + x222 + x232 + x242 + x252  = 4
 h23:          x213 + x223 + x233 + x243 + x253  = 5
 h24:          x214 + x224 + x234 + x244 + x254  = 6
 h25:          x215 + x225 + x235 + x245 + x255  = 7
 h31:          x311 + x321 + x331 + x341 + x351  = 4
 h32:          x312 + x322 + x332 + x342 + x352  = 5
 h33:          x313 + x323 + x333 + x343 + x353  = 6
 h34:          x314 + x324 + x334 + x344 + x354  = 7
 h35:          x315 + x325 + x335 + x345 + x355  = 8
 h41:          x411 + x421 + x431 + x441 + x451  = 5
 h42:          x412 + x422 + x432 + x442 + x452  = 6
 h43:          x413 + x423 + x433 + x443 + x453  = 7
 h44:          x414 + x424 + x434 + x444 + x454  = 8
 h45:          x415 + x425 + x435 + x445 + x455  = 9
 h51:          x511 + x521 + x531 + x541 + x551  = 6
 h52:          x512 + x522 + x532 + x542 + x552  = 7
 h53:          x513 + x523 + x533 + x543 + x553  = 8
 h54:          x514 + x524 + x534 + x544 + x554  = 9
 h55:          x515 + x525 + x535 + x545 + x555  = 10
 pathUtil11:   U11111 + U11121 + U11131 + U11141 + U11151  = 3
 pathUtil12:   U12112 + U12122 + U12132 + U12142 + U12152  = 3
 pathUtil13:   U13113 + U13123 + U13133 + U13143 + U13153  = 3
 pathUtil14:   U14114 + U14124 + U14134 + U14144 + U14154  = 3
 pathUtil15:   U15115 + U15125 + U15135 + U15145 + U15155  = 3
 pathUtil21:   U21211 + U21221 + U21231 + U21241 + U21251  = 3
 pathUtil22:   U22212 + U22222 + U22232 + U22242 + U22252  = 3
 pathUtil23:   U23213 + U23223 + U23233 + U23243 + U23253  = 3
 pathUtil24:   U24214 + U24224 + U24234 + U24244 + U24254  = 3
 pathUtil25:   U25215 + U25225 + U25235 + U25245 + U25255  = 3
 pathUtil31:   U31311 + U31321 + U31331 + U31341 + U31351  = 3
 pathUtil32:   U32312 + U32322 + U32332 + U32342 + U32352  = 3
 pathUtil33:   U33313 + U33323 + U33333 + U33343 + U33353  = 3
 pathUtil34:   U34314 + U34324 + U34334 + U34344 + U34354  = 3
 pathUtil35:   U35315 + U35325 + U35335 + U35345 + U35355  = 3
 pathUtil41:   U41411 + U41421 + U41431 + U41441 + U41451  = 3
 pathUtil42:   U42412 + U42422 + U42432 + U42442 + U42452  = 3
 pathUtil43:   U43413 + U43423 + U43433 + U43443 + U43453  = 3
 pathUtil44:   U44414 + U44424 + U44434 + U44444 + U44454  = 3
 pathUtil45:   U45415 + U45425 + U45435 + U45445 + U45455  = 3
 pathUtil51:   U51511 + U51521 + U51531 + U51541 + U51551  = 3
 pathUtil52:   U52512 + U52522 + U52532 + U52542 + U52552  = 3
 pathUtil53:   U53513 + U53523 + U53533 + U53543 + U53553  = 3
 pathUtil54:   U54514 + U54524 + U54534 + U54544 + U54554  = 3
 pathUtil55:   U55515 + U55525 + U55535 + U55545 + U55555  = 3
 splith11:     - x111 + 0.666666666666667 U11111  = 0
 splith11:     - x121 + 0.666666666666667 U11121  = 0
 splith11:     - x131 + 0.666666666666667 U11131  = 0
 splith11:     - x141 + 0.666666666666667 U11141  = 0
 splith11:     - x151 + 0.666666666666667 U11151  = 0
 splith12:     - x112 + U12112  = 0
 splith12:     - x122 + U12122  = 0
 splith12:     - x132 + U12132  = 0
 splith12:     - x142 + U12142  = 0
 splith12:     - x152 + U12152  = 0
 splith13:     - x113 + 1.33333333333333 U13113  = 0
 splith13:     - x123 + 1.33333333333333 U13123  = 0
 splith13:     - x133 + 1.33333333333333 U13133  = 0
 splith13:     - x143 + 1.33333333333333 U13143  = 0
 splith13:     - x153 + 1.33333333333333 U13153  = 0
 splith14:     - x114 + 1.66666666666667 U14114  = 0
 splith14:     - x124 + 1.66666666666667 U14124  = 0
 splith14:     - x134 + 1.66666666666667 U14134  = 0
 splith14:     - x144 + 1.66666666666667 U14144  = 0
 splith14:     - x154 + 1.66666666666667 U14154  = 0
 splith15:     - x115 + 2 U15115  = 0
 splith15:     - x125 + 2 U15125  = 0
 splith15:     - x135 + 2 U15135  = 0
 splith15:     - x145 + 2 U15145  = 0
 splith15:     - x155 + 2 U15155  = 0
 splith21:     - x211 + U21211  = 0
 splith21:     - x221 + U21221  = 0
 splith21:     - x231 + U21231  = 0
 splith21:     - x241 + U21241  = 0
 splith21:     - x251 + U21251  = 0
 splith22:     - x212 + 1.33333333333333 U22212  = 0
 splith22:     - x222 + 1.33333333333333 U22222  = 0
 splith22:     - x232 + 1.33333333333333 U22232  = 0
 splith22:     - x242 + 1.33333333333333 U22242  = 0
 splith22:     - x252 + 1.33333333333333 U22252  = 0
 splith23:     - x213 + 1.66666666666667 U23213  = 0
 splith23:     - x223 + 1.66666666666667 U23223  = 0
 splith23:     - x233 + 1.66666666666667 U23233  = 0
 splith23:     - x243 + 1.66666666666667 U23243  = 0
 splith23:     - x253 + 1.66666666666667 U23253  = 0
 splith24:     - x214 + 2 U24214  = 0
 splith24:     - x224 + 2 U24224  = 0
 splith24:     - x234 + 2 U24234  = 0
 splith24:     - x244 + 2 U24244  = 0
 splith24:     - x254 + 2 U24254  = 0
 splith25:     - x215 + 2.33333333333333 U25215  = 0
 splith25:     - x225 + 2.33333333333333 U25225  = 0
 splith25:     - x235 + 2.33333333333333 U25235  = 0
 splith25:     - x245 + 2.33333333333333 U25245  = 0
 splith25:     - x255 + 2.33333333333333 U25255  = 0
 splith31:     - x311 + 1.33333333333333 U31311  = 0
 splith31:     - x321 + 1.33333333333333 U31321  = 0
 splith31:     - x331 + 1.33333333333333 U31331  = 0
 splith31:     - x341 + 1.33333333333333 U31341  = 0
 splith31:     - x351 + 1.33333333333333 U31351  = 0
 splith32:     - x312 + 1.66666666666667 U32312  = 0
 splith32:     - x322 + 1.66666666666667 U32322  = 0
 splith32:     - x332 + 1.66666666666667 U32332  = 0
 splith32:     - x342 + 1.66666666666667 U32342  = 0
 splith32:     - x352 + 1.66666666666667 U32352  = 0
 splith33:     - x313 + 2 U33313  = 0
 splith33:     - x323 + 2 U33323  = 0
 splith33:     - x333 + 2 U33333  = 0
 splith33:     - x343 + 2 U33343  = 0
 splith33:     - x353 + 2 U33353  = 0
 splith34:     - x314 + 2.33333333333333 U34314  = 0
 splith34:     - x324 + 2.33333333333333 U34324  = 0
 splith34:     - x334 + 2.33333333333333 U34334  = 0
 splith34:     - x344 + 2.33333333333333 U34344  = 0
 splith34:     - x354 + 2.33333333333333 U34354  = 0
 splith35:     - x315 + 2.66666666666667 U35315  = 0
 splith35:     - x325 + 2.66666666666667 U35325  = 0
 splith35:     - x335 + 2.66666666666667 U35335  = 0
 splith35:     - x345 + 2.66666666666667 U35345  = 0
 splith35:     - x355 + 2.66666666666667 U35355  = 0
 splith41:     - x411 + 1.66666666666667 U41411  = 0
 splith41:     - x421 + 1.66666666666667 U41421  = 0
 splith41:     - x431 + 1.66666666666667 U41431  = 0
 splith41:     - x441 + 1.66666666666667 U41441  = 0
 splith41:     - x451 + 1.66666666666667 U41451  = 0
 splith42:     - x412 + 2 U42412  = 0
 splith42:     - x422 + 2 U42422  = 0
 splith42:     - x432 + 2 U42432  = 0
 splith42:     - x442 + 2 U42442  = 0
 splith42:     - x452 + 2 U42452  = 0
 splith43:     - x413 + 2.33333333333333 U43413  = 0
 splith43:     - x423 + 2.33333333333333 U43423  = 0
 splith43:     - x433 + 2.33333333333333 U43433  = 0
 splith43:     - x443 + 2.33333333333333 U43443  = 0
 splith43:     - x453 + 2.33333333333333 U43453  = 0
 splith44:     - x414 + 2.66666666666667 U44414  = 0
 splith44:     - x424 + 2.66666666666667 U44424  = 0
 splith44:     - x434 + 2.66666666666667 U44434  = 0
 splith44:     - x444 + 2.66666666666667 U44444  = 0
 splith44:     - x454 + 2.66666666666667 U44454  = 0
 splith45:     - x415 + 3 U45415  = 0
 splith45:     - x425 + 3 U45425  = 0
 splith45:     - x435 + 3 U45435  = 0
 splith45:     - x445 + 3 U45445  = 0
 splith45:     - x455 + 3 U45455  = 0
 splith51:     - x511 + 2 U51511  = 0
 splith51:     - x521 + 2 U51521  = 0
 splith51:     - x531 + 2 U51531  = 0
 splith51:     - x541 + 2 U51541  = 0
 splith51:     - x551 + 2 U51551  = 0
 splith52:     - x512 + 2.33333333333333 U52512  = 0
 splith52:     - x522 + 2.33333333333333 U52522  = 0
 splith52:     - x532 + 2.33333333333333 U52532  = 0
 splith52:     - x542 + 2.33333333333333 U52542  = 0
 splith52:     - x552 + 2.33333333333333 U52552  = 0
 splith53:     - x513 + 2.66666666666667 U53513  = 0
 splith53:     - x523 + 2.66666666666667 U53523  = 0
 splith53:     - x533 + 2.66666666666667 U53533  = 0
 splith53:     - x543 + 2.66666666666667 U53543  = 0
 splith53:     - x553 + 2.66666666666667 U53553  = 0
 splith54:     - x514 + 3 U54514  = 0
 splith54:     - x524 + 3 U54524  = 0
 splith54:     - x534 + 3 U54534  = 0
 splith54:     - x544 + 3 U54544  = 0
 splith54:     - x554 + 3 U54554  = 0
 splith55:     - x515 + 3.33333333333333 U55515  = 0
 splith55:     - x525 + 3.33333333333333 U55525  = 0
 splith55:     - x535 + 3.33333333333333 U55535  = 0
 splith55:     - x545 + 3.33333333333333 U55545  = 0
 splith55:     - x555 + 3.33333333333333 U55555  = 0
 capacC11:     x111 + x112 + x113 + x114 + x115 - c11  = 0
 capacC12:     x121 + x122 + x123 + x124 + x125 - c12  = 0
 capacC13:     x131 + x132 + x133 + x134 + x135 - c13  = 0
 capacC14:     x141 + x142 + x143 + x144 + x145 - c14  = 0
 capacC15:     x151 + x152 + x153 + x154 + x155 - c15  = 0
 capacC21:     x211 + x212 + x213 + x214 + x215 - c21  = 0
 capacC22:     x221 + x222 + x223 + x224 + x225 - c22  = 0
 capacC23:     x231 + x232 + x233 + x234 + x235 - c23  = 0
 capacC24:     x241 + x242 + x243 + x244 + x245 - c24  = 0
 capacC25:     x251 + x252 + x253 + x254 + x255 - c25  = 0
 capacC31:     x311 + x312 + x313 + x314 + x315 - c31  = 0
 capacC32:     x321 + x322 + x323 + x324 + x325 - c32  = 0
 capacC33:     x331 + x332 + x333 + x334 + x335 - c33  = 0
 capacC34:     x341 + x342 + x343 + x344 + x345 - c34  = 0
 capacC35:     x351 + x352 + x353 + x354 + x355 - c35  = 0
 capacC41:     x411 + x412 + x413 + x414 + x415 - c41  = 0
 capacC42:     x421 + x422 + x423 + x424 + x425 - c42  = 0
 capacC43:     x431 + x432 + x433 + x434 + x435 - c43  = 0
 capacC44:     x441 + x442 + x443 + x444 + x445 - c44  = 0
 capacC45:     x451 + x452 + x453 + x454 + x455 - c45  = 0
 capacC51:     x511 + x512 + x513 + x514 + x515 - c51  = 0
 capacC52:     x521 + x522 + x523 + x524 + x525 - c52  = 0
 capacC53:     x531 + x532 + x533 + x534 + x535 - c53  = 0
 capacC54:     x541 + x542 + x543 + x544 + x545 - c54  = 0
 capacC55:     x551 + x552 + x553 + x554 + x555 - c55  = 0
 capacD11:     x111 + x211 + x311 + x411 + x511 - d11  = 0
 capacD12:     x112 + x212 + x312 + x412 + x512 - d12  = 0
 capacD13:     x113 + x213 + x313 + x413 + x513 - d13  = 0
 capacD14:     x114 + x214 + x314 + x414 + x514 - d14  = 0
 capacD15:     x115 + x215 + x315 + x415 + x515 - d15  = 0
 capacD21:     x121 + x221 + x321 + x421 + x521 - d21  = 0
 capacD22:     x122 + x222 + x322 + x422 + x522 - d22  = 0
 capacD23:     x123 + x223 + x323 + x423 + x523 - d23  = 0
 capacD24:     x124 + x224 + x324 + x424 + x524 - d24  = 0
 capacD25:     x125 + x225 + x325 + x425 + x525 - d25  = 0
 capacD31:     x131 + x231 + x331 + x431 + x531 - d31  = 0
 capacD32:     x132 + x232 + x332 + x432 + x532 - d32  = 0
 capacD33:     x133 + x233 + x333 + x433 + x533 - d33  = 0
 capacD34:     x134 + x234 + x334 + x434 + x534 - d34  = 0
 capacD35:     x135 + x235 + x335 + x435 + x535 - d35  = 0
 capacD41:     x141 + x241 + x341 + x441 + x541 - d41  = 0
 capacD42:     x142 + x242 + x342 + x442 + x542 - d42  = 0
 capacD43:     x143 + x243 + x343 + x443 + x543 - d43  = 0
 capacD44:     x144 + x244 + x344 + x444 + x544 - d44  = 0
 capacD45:     x145 + x245 + x345 + x445 + x545 - d45  = 0
 capacD51:     x151 + x251 + x351 + x451 + x551 - d51  = 0
 capacD52:     x152 + x252 + x352 + x452 + x552 - d52  = 0
 capacD53:     x153 + x253 + x353 + x453 + x553 - d53  = 0
 capacD54:     x154 + x254 + x354 + x454 + x554 - d54  = 0
 capacD55:     x155 + x255 + x355 + x455 + x555 - d55  = 0
 load1:        x111 + x112 + x113 + x114 + x115 + x211 + x212 + x213 + x214
               + x215 + x311 + x312 + x313 + x314 + x315 + x411 + x412 + x413
               + x414 + x415 + x511 + x512 + x513 + x514 + x515 - loadk1  = 0
 load2:        x121 + x122 + x123 + x124 + x125 + x221 + x222 + x223 + x224
               + x225 + x321 + x322 + x323 + x324 + x325 + x421 + x422 + x423
               + x424 + x425 + x521 + x522 + x523 + x524 + x525 - loadk2  = 0
 load3:        x131 + x132 + x133 + x134 + x135 + x231 + x232 + x233 + x234
               + x235 + x331 + x332 + x333 + x334 + x335 + x431 + x432 + x433
               + x434 + x435 + x531 + x532 + x533 + x534 + x535 - loadk3  = 0
 load4:        x141 + x142 + x143 + x144 + x145 + x241 + x242 + x243 + x244
               + x245 + x341 + x342 + x343 + x344 + x345 + x441 + x442 + x443
               + x444 + x445 + x541 + x542 + x543 + x544 + x545 - loadk4  = 0
 load5:        x151 + x152 + x153 + x154 + x155 + x251 + x252 + x253 + x254
               + x255 + x351 + x352 + x353 + x354 + x355 + x451 + x452 + x453
               + x454 + x455 + x551 + x552 + x553 + x554 + x555 - loadk5  = 0
 loadbalance1: - 0.00666666666666667 loadk1 + r >= 0
 loadbalance2: - 0.00666666666666667 loadk2 + r >= 0
 loadbalance3: - 0.00666666666666667 loadk3 + r >= 0
 loadbalance4: - 0.00666666666666667 loadk4 + r >= 0
 loadbalance5: - 0.00666666666666667 loadk5 + r >= 0
Bounds
 0 <= U11111 <= 1
 0 <= U11121 <= 1
 0 <= U11131 <= 1
 0 <= U11141 <= 1
 0 <= U11151 <= 1
 0 <= U12112 <= 1
 0 <= U12122 <= 1
 0 <= U12132 <= 1
 0 <= U12142 <= 1
 0 <= U12152 <= 1
 0 <= U13113 <= 1
 0 <= U13123 <= 1
 0 <= U13133 <= 1
 0 <= U13143 <= 1
 0 <= U13153 <= 1
 0 <= U14114 <= 1
 0 <= U14124 <= 1
 0 <= U14134 <= 1
 0 <= U14144 <= 1
 0 <= U14154 <= 1
 0 <= U15115 <= 1
 0 <= U15125 <= 1
 0 <= U15135 <= 1
 0 <= U15145 <= 1
 0 <= U15155 <= 1
 0 <= U21211 <= 1
 0 <= U21221 <= 1
 0 <= U21231 <= 1
 0 <= U21241 <= 1
 0 <= U21251 <= 1
 0 <= U22212 <= 1
 0 <= U22222 <= 1
 0 <= U22232 <= 1
 0 <= U22242 <= 1
 0 <= U22252 <= 1
 0 <= U23213 <= 1
 0 <= U23223 <= 1
 0 <= U23233 <= 1
 0 <= U23243 <= 1
 0 <= U23253 <= 1
 0 <= U24214 <= 1
 0 <= U24224 <= 1
 0 <= U24234 <= 1
 0 <= U24244 <= 1
 0 <= U24254 <= 1
 0 <= U25215 <= 1
 0 <= U25225 <= 1
 0 <= U25235 <= 1
 0 <= U25245 <= 1
 0 <= U25255 <= 1
 0 <= U31311 <= 1
 0 <= U31321 <= 1
 0 <= U31331 <= 1
 0 <= U31341 <= 1
 0 <= U31351 <= 1
 0 <= U32312 <= 1
 0 <= U32322 <= 1
 0 <= U32332 <= 1
 0 <= U32342 <= 1
 0 <= U32352 <= 1
 0 <= U33313 <= 1
 0 <= U33323 <= 1
 0 <= U33333 <= 1
 0 <= U33343 <= 1
 0 <= U33353 <= 1
 0 <= U34314 <= 1
 0 <= U34324 <= 1
 0 <= U34334 <= 1
 0 <= U34344 <= 1
 0 <= U34354 <= 1
 0 <= U35315 <= 1
 0 <= U35325 <= 1
 0 <= U35335 <= 1
 0 <= U35345 <= 1
 0 <= U35355 <= 1
 0 <= U41411 <= 1
 0 <= U41421 <= 1
 0 <= U41431 <= 1
 0 <= U41441 <= 1
 0 <= U41451 <= 1
 0 <= U42412 <= 1
 0 <= U42422 <= 1
 0 <= U42432 <= 1
 0 <= U42442 <= 1
 0 <= U42452 <= 1
 0 <= U43413 <= 1
 0 <= U43423 <= 1
 0 <= U43433 <= 1
 0 <= U43443 <= 1
 0 <= U43453 <= 1
 0 <= U44414 <= 1
 0 <= U44424 <= 1
 0 <= U44434 <= 1
 0 <= U44444 <= 1
 0 <= U44454 <= 1
 0 <= U45415 <= 1
 0 <= U45425 <= 1
 0 <= U45435 <= 1
 0 <= U45445 <= 1
 0 <= U45455 <= 1
 0 <= U51511 <= 1
 0 <= U51521 <= 1
 0 <= U51531 <= 1
 0 <= U51541 <= 1
 0 <= U51551 <= 1
 0 <= U52512 <= 1
 0 <= U52522 <= 1
 0 <= U52532 <= 1
 0 <= U52542 <= 1
 0 <= U52552 <= 1
 0 <= U53513 <= 1
 0 <= U53523 <= 1
 0 <= U53533 <= 1
 0 <= U53543 <= 1
 0 <= U53553 <= 1
 0 <= U54514 <= 1
 0 <= U54524 <= 1
 0 <= U54534 <= 1
 0 <= U54544 <= 1
 0 <= U54554 <= 1
 0 <= U55515 <= 1
 0 <= U55525 <= 1
 0 <= U55535 <= 1
 0 <= U55545 <= 1
 0 <= U55555 <= 1
 0 <= r <= 1
Binaries
 U11111  U11121  U11131  U11141  U11151  U12112  U12122  U12132  U12142 
 U12152  U13113  U13123  U13133  U13143  U13153  U14114  U14124  U14134 
 U14144  U14154  U15115  U15125  U15135  U15145  U15155  U21211  U21221 
 U21231  U21241  U21251  U22212  U22222  U22232  U22242  U22252  U23213 
 U23223  U23233  U23243  U23253  U24214  U24224  U24234  U24244  U24254 
 U25215  U25225  U25235  U25245  U25255  U31311  U31321  U31331  U31341 
 U31351  U32312  U32322  U32332  U32342  U32352  U33313  U33323  U33333 
 U33343  U33353  U34314  U34324  U34334  U34344  U34354  U35315  U35325 
 U35335  U35345  U35355  U41411  U41421  U41431  U41441  U41451  U42412 
 U42422  U42432  U42442  U42452  U43413  U43423  U43433  U43443  U43453 
 U44414  U44424  U44434  U44444  U44454  U45415  U45425  U45435  U45445 
 U45455  U51511  U51521  U51531  U51541  U51551  U52512  U52522  U52532 
 U52542  U52552  U53513  U53523  U53533  U53543  U53553  U54514  U54524 
 U54534  U54544  U54554  U55515  U55525  U55535  U55545  U55555 
End
